c *********************************
c * Circuit generated by BenCGen
c *
c * CarrySaveAdder_93_93_93_93_94
c *
c * Ports with 1 gate(s): 2
c * Ports with 2 gate(s): 466
c * Total gates: 468
c *********************************
p cnf 747 1588
1 468 0
-1 -468 0
1 -467 0
468 -467 0
-1 -468 467 0
467 -373 0
-467 373 0
1 94 -469 0
-1 94 469 0
1 -94 469 0
-1 -94 -469 0
469 187 -280 0
-469 187 280 0
469 -187 280 0
-469 -187 -280 0
187 -470 0
469 -470 0
-187 -469 470 0
94 -471 0
1 -471 0
-94 -1 471 0
-470 374 0
-471 374 0
470 471 -374 0
2 95 -472 0
-2 95 472 0
2 -95 472 0
-2 -95 -472 0
472 188 -281 0
-472 188 281 0
472 -188 281 0
-472 -188 -281 0
188 -473 0
472 -473 0
-188 -472 473 0
95 -474 0
2 -474 0
-95 -2 474 0
-473 375 0
-474 375 0
473 474 -375 0
3 96 -475 0
-3 96 475 0
3 -96 475 0
-3 -96 -475 0
475 189 -282 0
-475 189 282 0
475 -189 282 0
-475 -189 -282 0
189 -476 0
475 -476 0
-189 -475 476 0
96 -477 0
3 -477 0
-96 -3 477 0
-476 376 0
-477 376 0
476 477 -376 0
4 97 -478 0
-4 97 478 0
4 -97 478 0
-4 -97 -478 0
478 190 -283 0
-478 190 283 0
478 -190 283 0
-478 -190 -283 0
190 -479 0
478 -479 0
-190 -478 479 0
97 -480 0
4 -480 0
-97 -4 480 0
-479 377 0
-480 377 0
479 480 -377 0
5 98 -481 0
-5 98 481 0
5 -98 481 0
-5 -98 -481 0
481 191 -284 0
-481 191 284 0
481 -191 284 0
-481 -191 -284 0
191 -482 0
481 -482 0
-191 -481 482 0
98 -483 0
5 -483 0
-98 -5 483 0
-482 378 0
-483 378 0
482 483 -378 0
6 99 -484 0
-6 99 484 0
6 -99 484 0
-6 -99 -484 0
484 192 -285 0
-484 192 285 0
484 -192 285 0
-484 -192 -285 0
192 -485 0
484 -485 0
-192 -484 485 0
99 -486 0
6 -486 0
-99 -6 486 0
-485 379 0
-486 379 0
485 486 -379 0
7 100 -487 0
-7 100 487 0
7 -100 487 0
-7 -100 -487 0
487 193 -286 0
-487 193 286 0
487 -193 286 0
-487 -193 -286 0
193 -488 0
487 -488 0
-193 -487 488 0
100 -489 0
7 -489 0
-100 -7 489 0
-488 380 0
-489 380 0
488 489 -380 0
8 101 -490 0
-8 101 490 0
8 -101 490 0
-8 -101 -490 0
490 194 -287 0
-490 194 287 0
490 -194 287 0
-490 -194 -287 0
194 -491 0
490 -491 0
-194 -490 491 0
101 -492 0
8 -492 0
-101 -8 492 0
-491 381 0
-492 381 0
491 492 -381 0
9 102 -493 0
-9 102 493 0
9 -102 493 0
-9 -102 -493 0
493 195 -288 0
-493 195 288 0
493 -195 288 0
-493 -195 -288 0
195 -494 0
493 -494 0
-195 -493 494 0
102 -495 0
9 -495 0
-102 -9 495 0
-494 382 0
-495 382 0
494 495 -382 0
10 103 -496 0
-10 103 496 0
10 -103 496 0
-10 -103 -496 0
496 196 -289 0
-496 196 289 0
496 -196 289 0
-496 -196 -289 0
196 -497 0
496 -497 0
-196 -496 497 0
103 -498 0
10 -498 0
-103 -10 498 0
-497 383 0
-498 383 0
497 498 -383 0
11 104 -499 0
-11 104 499 0
11 -104 499 0
-11 -104 -499 0
499 197 -290 0
-499 197 290 0
499 -197 290 0
-499 -197 -290 0
197 -500 0
499 -500 0
-197 -499 500 0
104 -501 0
11 -501 0
-104 -11 501 0
-500 384 0
-501 384 0
500 501 -384 0
12 105 -502 0
-12 105 502 0
12 -105 502 0
-12 -105 -502 0
502 198 -291 0
-502 198 291 0
502 -198 291 0
-502 -198 -291 0
198 -503 0
502 -503 0
-198 -502 503 0
105 -504 0
12 -504 0
-105 -12 504 0
-503 385 0
-504 385 0
503 504 -385 0
13 106 -505 0
-13 106 505 0
13 -106 505 0
-13 -106 -505 0
505 199 -292 0
-505 199 292 0
505 -199 292 0
-505 -199 -292 0
199 -506 0
505 -506 0
-199 -505 506 0
106 -507 0
13 -507 0
-106 -13 507 0
-506 386 0
-507 386 0
506 507 -386 0
14 107 -508 0
-14 107 508 0
14 -107 508 0
-14 -107 -508 0
508 200 -293 0
-508 200 293 0
508 -200 293 0
-508 -200 -293 0
200 -509 0
508 -509 0
-200 -508 509 0
107 -510 0
14 -510 0
-107 -14 510 0
-509 387 0
-510 387 0
509 510 -387 0
15 108 -511 0
-15 108 511 0
15 -108 511 0
-15 -108 -511 0
511 201 -294 0
-511 201 294 0
511 -201 294 0
-511 -201 -294 0
201 -512 0
511 -512 0
-201 -511 512 0
108 -513 0
15 -513 0
-108 -15 513 0
-512 388 0
-513 388 0
512 513 -388 0
16 109 -514 0
-16 109 514 0
16 -109 514 0
-16 -109 -514 0
514 202 -295 0
-514 202 295 0
514 -202 295 0
-514 -202 -295 0
202 -515 0
514 -515 0
-202 -514 515 0
109 -516 0
16 -516 0
-109 -16 516 0
-515 389 0
-516 389 0
515 516 -389 0
17 110 -517 0
-17 110 517 0
17 -110 517 0
-17 -110 -517 0
517 203 -296 0
-517 203 296 0
517 -203 296 0
-517 -203 -296 0
203 -518 0
517 -518 0
-203 -517 518 0
110 -519 0
17 -519 0
-110 -17 519 0
-518 390 0
-519 390 0
518 519 -390 0
18 111 -520 0
-18 111 520 0
18 -111 520 0
-18 -111 -520 0
520 204 -297 0
-520 204 297 0
520 -204 297 0
-520 -204 -297 0
204 -521 0
520 -521 0
-204 -520 521 0
111 -522 0
18 -522 0
-111 -18 522 0
-521 391 0
-522 391 0
521 522 -391 0
19 112 -523 0
-19 112 523 0
19 -112 523 0
-19 -112 -523 0
523 205 -298 0
-523 205 298 0
523 -205 298 0
-523 -205 -298 0
205 -524 0
523 -524 0
-205 -523 524 0
112 -525 0
19 -525 0
-112 -19 525 0
-524 392 0
-525 392 0
524 525 -392 0
20 113 -526 0
-20 113 526 0
20 -113 526 0
-20 -113 -526 0
526 206 -299 0
-526 206 299 0
526 -206 299 0
-526 -206 -299 0
206 -527 0
526 -527 0
-206 -526 527 0
113 -528 0
20 -528 0
-113 -20 528 0
-527 393 0
-528 393 0
527 528 -393 0
21 114 -529 0
-21 114 529 0
21 -114 529 0
-21 -114 -529 0
529 207 -300 0
-529 207 300 0
529 -207 300 0
-529 -207 -300 0
207 -530 0
529 -530 0
-207 -529 530 0
114 -531 0
21 -531 0
-114 -21 531 0
-530 394 0
-531 394 0
530 531 -394 0
22 115 -532 0
-22 115 532 0
22 -115 532 0
-22 -115 -532 0
532 208 -301 0
-532 208 301 0
532 -208 301 0
-532 -208 -301 0
208 -533 0
532 -533 0
-208 -532 533 0
115 -534 0
22 -534 0
-115 -22 534 0
-533 395 0
-534 395 0
533 534 -395 0
23 116 -535 0
-23 116 535 0
23 -116 535 0
-23 -116 -535 0
535 209 -302 0
-535 209 302 0
535 -209 302 0
-535 -209 -302 0
209 -536 0
535 -536 0
-209 -535 536 0
116 -537 0
23 -537 0
-116 -23 537 0
-536 396 0
-537 396 0
536 537 -396 0
24 117 -538 0
-24 117 538 0
24 -117 538 0
-24 -117 -538 0
538 210 -303 0
-538 210 303 0
538 -210 303 0
-538 -210 -303 0
210 -539 0
538 -539 0
-210 -538 539 0
117 -540 0
24 -540 0
-117 -24 540 0
-539 397 0
-540 397 0
539 540 -397 0
25 118 -541 0
-25 118 541 0
25 -118 541 0
-25 -118 -541 0
541 211 -304 0
-541 211 304 0
541 -211 304 0
-541 -211 -304 0
211 -542 0
541 -542 0
-211 -541 542 0
118 -543 0
25 -543 0
-118 -25 543 0
-542 398 0
-543 398 0
542 543 -398 0
26 119 -544 0
-26 119 544 0
26 -119 544 0
-26 -119 -544 0
544 212 -305 0
-544 212 305 0
544 -212 305 0
-544 -212 -305 0
212 -545 0
544 -545 0
-212 -544 545 0
119 -546 0
26 -546 0
-119 -26 546 0
-545 399 0
-546 399 0
545 546 -399 0
27 120 -547 0
-27 120 547 0
27 -120 547 0
-27 -120 -547 0
547 213 -306 0
-547 213 306 0
547 -213 306 0
-547 -213 -306 0
213 -548 0
547 -548 0
-213 -547 548 0
120 -549 0
27 -549 0
-120 -27 549 0
-548 400 0
-549 400 0
548 549 -400 0
28 121 -550 0
-28 121 550 0
28 -121 550 0
-28 -121 -550 0
550 214 -307 0
-550 214 307 0
550 -214 307 0
-550 -214 -307 0
214 -551 0
550 -551 0
-214 -550 551 0
121 -552 0
28 -552 0
-121 -28 552 0
-551 401 0
-552 401 0
551 552 -401 0
29 122 -553 0
-29 122 553 0
29 -122 553 0
-29 -122 -553 0
553 215 -308 0
-553 215 308 0
553 -215 308 0
-553 -215 -308 0
215 -554 0
553 -554 0
-215 -553 554 0
122 -555 0
29 -555 0
-122 -29 555 0
-554 402 0
-555 402 0
554 555 -402 0
30 123 -556 0
-30 123 556 0
30 -123 556 0
-30 -123 -556 0
556 216 -309 0
-556 216 309 0
556 -216 309 0
-556 -216 -309 0
216 -557 0
556 -557 0
-216 -556 557 0
123 -558 0
30 -558 0
-123 -30 558 0
-557 403 0
-558 403 0
557 558 -403 0
31 124 -559 0
-31 124 559 0
31 -124 559 0
-31 -124 -559 0
559 217 -310 0
-559 217 310 0
559 -217 310 0
-559 -217 -310 0
217 -560 0
559 -560 0
-217 -559 560 0
124 -561 0
31 -561 0
-124 -31 561 0
-560 404 0
-561 404 0
560 561 -404 0
32 125 -562 0
-32 125 562 0
32 -125 562 0
-32 -125 -562 0
562 218 -311 0
-562 218 311 0
562 -218 311 0
-562 -218 -311 0
218 -563 0
562 -563 0
-218 -562 563 0
125 -564 0
32 -564 0
-125 -32 564 0
-563 405 0
-564 405 0
563 564 -405 0
33 126 -565 0
-33 126 565 0
33 -126 565 0
-33 -126 -565 0
565 219 -312 0
-565 219 312 0
565 -219 312 0
-565 -219 -312 0
219 -566 0
565 -566 0
-219 -565 566 0
126 -567 0
33 -567 0
-126 -33 567 0
-566 406 0
-567 406 0
566 567 -406 0
34 127 -568 0
-34 127 568 0
34 -127 568 0
-34 -127 -568 0
568 220 -313 0
-568 220 313 0
568 -220 313 0
-568 -220 -313 0
220 -569 0
568 -569 0
-220 -568 569 0
127 -570 0
34 -570 0
-127 -34 570 0
-569 407 0
-570 407 0
569 570 -407 0
35 128 -571 0
-35 128 571 0
35 -128 571 0
-35 -128 -571 0
571 221 -314 0
-571 221 314 0
571 -221 314 0
-571 -221 -314 0
221 -572 0
571 -572 0
-221 -571 572 0
128 -573 0
35 -573 0
-128 -35 573 0
-572 408 0
-573 408 0
572 573 -408 0
36 129 -574 0
-36 129 574 0
36 -129 574 0
-36 -129 -574 0
574 222 -315 0
-574 222 315 0
574 -222 315 0
-574 -222 -315 0
222 -575 0
574 -575 0
-222 -574 575 0
129 -576 0
36 -576 0
-129 -36 576 0
-575 409 0
-576 409 0
575 576 -409 0
37 130 -577 0
-37 130 577 0
37 -130 577 0
-37 -130 -577 0
577 223 -316 0
-577 223 316 0
577 -223 316 0
-577 -223 -316 0
223 -578 0
577 -578 0
-223 -577 578 0
130 -579 0
37 -579 0
-130 -37 579 0
-578 410 0
-579 410 0
578 579 -410 0
38 131 -580 0
-38 131 580 0
38 -131 580 0
-38 -131 -580 0
580 224 -317 0
-580 224 317 0
580 -224 317 0
-580 -224 -317 0
224 -581 0
580 -581 0
-224 -580 581 0
131 -582 0
38 -582 0
-131 -38 582 0
-581 411 0
-582 411 0
581 582 -411 0
39 132 -583 0
-39 132 583 0
39 -132 583 0
-39 -132 -583 0
583 225 -318 0
-583 225 318 0
583 -225 318 0
-583 -225 -318 0
225 -584 0
583 -584 0
-225 -583 584 0
132 -585 0
39 -585 0
-132 -39 585 0
-584 412 0
-585 412 0
584 585 -412 0
40 133 -586 0
-40 133 586 0
40 -133 586 0
-40 -133 -586 0
586 226 -319 0
-586 226 319 0
586 -226 319 0
-586 -226 -319 0
226 -587 0
586 -587 0
-226 -586 587 0
133 -588 0
40 -588 0
-133 -40 588 0
-587 413 0
-588 413 0
587 588 -413 0
41 134 -589 0
-41 134 589 0
41 -134 589 0
-41 -134 -589 0
589 227 -320 0
-589 227 320 0
589 -227 320 0
-589 -227 -320 0
227 -590 0
589 -590 0
-227 -589 590 0
134 -591 0
41 -591 0
-134 -41 591 0
-590 414 0
-591 414 0
590 591 -414 0
42 135 -592 0
-42 135 592 0
42 -135 592 0
-42 -135 -592 0
592 228 -321 0
-592 228 321 0
592 -228 321 0
-592 -228 -321 0
228 -593 0
592 -593 0
-228 -592 593 0
135 -594 0
42 -594 0
-135 -42 594 0
-593 415 0
-594 415 0
593 594 -415 0
43 136 -595 0
-43 136 595 0
43 -136 595 0
-43 -136 -595 0
595 229 -322 0
-595 229 322 0
595 -229 322 0
-595 -229 -322 0
229 -596 0
595 -596 0
-229 -595 596 0
136 -597 0
43 -597 0
-136 -43 597 0
-596 416 0
-597 416 0
596 597 -416 0
44 137 -598 0
-44 137 598 0
44 -137 598 0
-44 -137 -598 0
598 230 -323 0
-598 230 323 0
598 -230 323 0
-598 -230 -323 0
230 -599 0
598 -599 0
-230 -598 599 0
137 -600 0
44 -600 0
-137 -44 600 0
-599 417 0
-600 417 0
599 600 -417 0
45 138 -601 0
-45 138 601 0
45 -138 601 0
-45 -138 -601 0
601 231 -324 0
-601 231 324 0
601 -231 324 0
-601 -231 -324 0
231 -602 0
601 -602 0
-231 -601 602 0
138 -603 0
45 -603 0
-138 -45 603 0
-602 418 0
-603 418 0
602 603 -418 0
46 139 -604 0
-46 139 604 0
46 -139 604 0
-46 -139 -604 0
604 232 -325 0
-604 232 325 0
604 -232 325 0
-604 -232 -325 0
232 -605 0
604 -605 0
-232 -604 605 0
139 -606 0
46 -606 0
-139 -46 606 0
-605 419 0
-606 419 0
605 606 -419 0
47 140 -607 0
-47 140 607 0
47 -140 607 0
-47 -140 -607 0
607 233 -326 0
-607 233 326 0
607 -233 326 0
-607 -233 -326 0
233 -608 0
607 -608 0
-233 -607 608 0
140 -609 0
47 -609 0
-140 -47 609 0
-608 420 0
-609 420 0
608 609 -420 0
48 141 -610 0
-48 141 610 0
48 -141 610 0
-48 -141 -610 0
610 234 -327 0
-610 234 327 0
610 -234 327 0
-610 -234 -327 0
234 -611 0
610 -611 0
-234 -610 611 0
141 -612 0
48 -612 0
-141 -48 612 0
-611 421 0
-612 421 0
611 612 -421 0
49 142 -613 0
-49 142 613 0
49 -142 613 0
-49 -142 -613 0
613 235 -328 0
-613 235 328 0
613 -235 328 0
-613 -235 -328 0
235 -614 0
613 -614 0
-235 -613 614 0
142 -615 0
49 -615 0
-142 -49 615 0
-614 422 0
-615 422 0
614 615 -422 0
50 143 -616 0
-50 143 616 0
50 -143 616 0
-50 -143 -616 0
616 236 -329 0
-616 236 329 0
616 -236 329 0
-616 -236 -329 0
236 -617 0
616 -617 0
-236 -616 617 0
143 -618 0
50 -618 0
-143 -50 618 0
-617 423 0
-618 423 0
617 618 -423 0
51 144 -619 0
-51 144 619 0
51 -144 619 0
-51 -144 -619 0
619 237 -330 0
-619 237 330 0
619 -237 330 0
-619 -237 -330 0
237 -620 0
619 -620 0
-237 -619 620 0
144 -621 0
51 -621 0
-144 -51 621 0
-620 424 0
-621 424 0
620 621 -424 0
52 145 -622 0
-52 145 622 0
52 -145 622 0
-52 -145 -622 0
622 238 -331 0
-622 238 331 0
622 -238 331 0
-622 -238 -331 0
238 -623 0
622 -623 0
-238 -622 623 0
145 -624 0
52 -624 0
-145 -52 624 0
-623 425 0
-624 425 0
623 624 -425 0
53 146 -625 0
-53 146 625 0
53 -146 625 0
-53 -146 -625 0
625 239 -332 0
-625 239 332 0
625 -239 332 0
-625 -239 -332 0
239 -626 0
625 -626 0
-239 -625 626 0
146 -627 0
53 -627 0
-146 -53 627 0
-626 426 0
-627 426 0
626 627 -426 0
54 147 -628 0
-54 147 628 0
54 -147 628 0
-54 -147 -628 0
628 240 -333 0
-628 240 333 0
628 -240 333 0
-628 -240 -333 0
240 -629 0
628 -629 0
-240 -628 629 0
147 -630 0
54 -630 0
-147 -54 630 0
-629 427 0
-630 427 0
629 630 -427 0
55 148 -631 0
-55 148 631 0
55 -148 631 0
-55 -148 -631 0
631 241 -334 0
-631 241 334 0
631 -241 334 0
-631 -241 -334 0
241 -632 0
631 -632 0
-241 -631 632 0
148 -633 0
55 -633 0
-148 -55 633 0
-632 428 0
-633 428 0
632 633 -428 0
56 149 -634 0
-56 149 634 0
56 -149 634 0
-56 -149 -634 0
634 242 -335 0
-634 242 335 0
634 -242 335 0
-634 -242 -335 0
242 -635 0
634 -635 0
-242 -634 635 0
149 -636 0
56 -636 0
-149 -56 636 0
-635 429 0
-636 429 0
635 636 -429 0
57 150 -637 0
-57 150 637 0
57 -150 637 0
-57 -150 -637 0
637 243 -336 0
-637 243 336 0
637 -243 336 0
-637 -243 -336 0
243 -638 0
637 -638 0
-243 -637 638 0
150 -639 0
57 -639 0
-150 -57 639 0
-638 430 0
-639 430 0
638 639 -430 0
58 151 -640 0
-58 151 640 0
58 -151 640 0
-58 -151 -640 0
640 244 -337 0
-640 244 337 0
640 -244 337 0
-640 -244 -337 0
244 -641 0
640 -641 0
-244 -640 641 0
151 -642 0
58 -642 0
-151 -58 642 0
-641 431 0
-642 431 0
641 642 -431 0
59 152 -643 0
-59 152 643 0
59 -152 643 0
-59 -152 -643 0
643 245 -338 0
-643 245 338 0
643 -245 338 0
-643 -245 -338 0
245 -644 0
643 -644 0
-245 -643 644 0
152 -645 0
59 -645 0
-152 -59 645 0
-644 432 0
-645 432 0
644 645 -432 0
60 153 -646 0
-60 153 646 0
60 -153 646 0
-60 -153 -646 0
646 246 -339 0
-646 246 339 0
646 -246 339 0
-646 -246 -339 0
246 -647 0
646 -647 0
-246 -646 647 0
153 -648 0
60 -648 0
-153 -60 648 0
-647 433 0
-648 433 0
647 648 -433 0
61 154 -649 0
-61 154 649 0
61 -154 649 0
-61 -154 -649 0
649 247 -340 0
-649 247 340 0
649 -247 340 0
-649 -247 -340 0
247 -650 0
649 -650 0
-247 -649 650 0
154 -651 0
61 -651 0
-154 -61 651 0
-650 434 0
-651 434 0
650 651 -434 0
62 155 -652 0
-62 155 652 0
62 -155 652 0
-62 -155 -652 0
652 248 -341 0
-652 248 341 0
652 -248 341 0
-652 -248 -341 0
248 -653 0
652 -653 0
-248 -652 653 0
155 -654 0
62 -654 0
-155 -62 654 0
-653 435 0
-654 435 0
653 654 -435 0
63 156 -655 0
-63 156 655 0
63 -156 655 0
-63 -156 -655 0
655 249 -342 0
-655 249 342 0
655 -249 342 0
-655 -249 -342 0
249 -656 0
655 -656 0
-249 -655 656 0
156 -657 0
63 -657 0
-156 -63 657 0
-656 436 0
-657 436 0
656 657 -436 0
64 157 -658 0
-64 157 658 0
64 -157 658 0
-64 -157 -658 0
658 250 -343 0
-658 250 343 0
658 -250 343 0
-658 -250 -343 0
250 -659 0
658 -659 0
-250 -658 659 0
157 -660 0
64 -660 0
-157 -64 660 0
-659 437 0
-660 437 0
659 660 -437 0
65 158 -661 0
-65 158 661 0
65 -158 661 0
-65 -158 -661 0
661 251 -344 0
-661 251 344 0
661 -251 344 0
-661 -251 -344 0
251 -662 0
661 -662 0
-251 -661 662 0
158 -663 0
65 -663 0
-158 -65 663 0
-662 438 0
-663 438 0
662 663 -438 0
66 159 -664 0
-66 159 664 0
66 -159 664 0
-66 -159 -664 0
664 252 -345 0
-664 252 345 0
664 -252 345 0
-664 -252 -345 0
252 -665 0
664 -665 0
-252 -664 665 0
159 -666 0
66 -666 0
-159 -66 666 0
-665 439 0
-666 439 0
665 666 -439 0
67 160 -667 0
-67 160 667 0
67 -160 667 0
-67 -160 -667 0
667 253 -346 0
-667 253 346 0
667 -253 346 0
-667 -253 -346 0
253 -668 0
667 -668 0
-253 -667 668 0
160 -669 0
67 -669 0
-160 -67 669 0
-668 440 0
-669 440 0
668 669 -440 0
68 161 -670 0
-68 161 670 0
68 -161 670 0
-68 -161 -670 0
670 254 -347 0
-670 254 347 0
670 -254 347 0
-670 -254 -347 0
254 -671 0
670 -671 0
-254 -670 671 0
161 -672 0
68 -672 0
-161 -68 672 0
-671 441 0
-672 441 0
671 672 -441 0
69 162 -673 0
-69 162 673 0
69 -162 673 0
-69 -162 -673 0
673 255 -348 0
-673 255 348 0
673 -255 348 0
-673 -255 -348 0
255 -674 0
673 -674 0
-255 -673 674 0
162 -675 0
69 -675 0
-162 -69 675 0
-674 442 0
-675 442 0
674 675 -442 0
70 163 -676 0
-70 163 676 0
70 -163 676 0
-70 -163 -676 0
676 256 -349 0
-676 256 349 0
676 -256 349 0
-676 -256 -349 0
256 -677 0
676 -677 0
-256 -676 677 0
163 -678 0
70 -678 0
-163 -70 678 0
-677 443 0
-678 443 0
677 678 -443 0
71 164 -679 0
-71 164 679 0
71 -164 679 0
-71 -164 -679 0
679 257 -350 0
-679 257 350 0
679 -257 350 0
-679 -257 -350 0
257 -680 0
679 -680 0
-257 -679 680 0
164 -681 0
71 -681 0
-164 -71 681 0
-680 444 0
-681 444 0
680 681 -444 0
72 165 -682 0
-72 165 682 0
72 -165 682 0
-72 -165 -682 0
682 258 -351 0
-682 258 351 0
682 -258 351 0
-682 -258 -351 0
258 -683 0
682 -683 0
-258 -682 683 0
165 -684 0
72 -684 0
-165 -72 684 0
-683 445 0
-684 445 0
683 684 -445 0
73 166 -685 0
-73 166 685 0
73 -166 685 0
-73 -166 -685 0
685 259 -352 0
-685 259 352 0
685 -259 352 0
-685 -259 -352 0
259 -686 0
685 -686 0
-259 -685 686 0
166 -687 0
73 -687 0
-166 -73 687 0
-686 446 0
-687 446 0
686 687 -446 0
74 167 -688 0
-74 167 688 0
74 -167 688 0
-74 -167 -688 0
688 260 -353 0
-688 260 353 0
688 -260 353 0
-688 -260 -353 0
260 -689 0
688 -689 0
-260 -688 689 0
167 -690 0
74 -690 0
-167 -74 690 0
-689 447 0
-690 447 0
689 690 -447 0
75 168 -691 0
-75 168 691 0
75 -168 691 0
-75 -168 -691 0
691 261 -354 0
-691 261 354 0
691 -261 354 0
-691 -261 -354 0
261 -692 0
691 -692 0
-261 -691 692 0
168 -693 0
75 -693 0
-168 -75 693 0
-692 448 0
-693 448 0
692 693 -448 0
76 169 -694 0
-76 169 694 0
76 -169 694 0
-76 -169 -694 0
694 262 -355 0
-694 262 355 0
694 -262 355 0
-694 -262 -355 0
262 -695 0
694 -695 0
-262 -694 695 0
169 -696 0
76 -696 0
-169 -76 696 0
-695 449 0
-696 449 0
695 696 -449 0
77 170 -697 0
-77 170 697 0
77 -170 697 0
-77 -170 -697 0
697 263 -356 0
-697 263 356 0
697 -263 356 0
-697 -263 -356 0
263 -698 0
697 -698 0
-263 -697 698 0
170 -699 0
77 -699 0
-170 -77 699 0
-698 450 0
-699 450 0
698 699 -450 0
78 171 -700 0
-78 171 700 0
78 -171 700 0
-78 -171 -700 0
700 264 -357 0
-700 264 357 0
700 -264 357 0
-700 -264 -357 0
264 -701 0
700 -701 0
-264 -700 701 0
171 -702 0
78 -702 0
-171 -78 702 0
-701 451 0
-702 451 0
701 702 -451 0
79 172 -703 0
-79 172 703 0
79 -172 703 0
-79 -172 -703 0
703 265 -358 0
-703 265 358 0
703 -265 358 0
-703 -265 -358 0
265 -704 0
703 -704 0
-265 -703 704 0
172 -705 0
79 -705 0
-172 -79 705 0
-704 452 0
-705 452 0
704 705 -452 0
80 173 -706 0
-80 173 706 0
80 -173 706 0
-80 -173 -706 0
706 266 -359 0
-706 266 359 0
706 -266 359 0
-706 -266 -359 0
266 -707 0
706 -707 0
-266 -706 707 0
173 -708 0
80 -708 0
-173 -80 708 0
-707 453 0
-708 453 0
707 708 -453 0
81 174 -709 0
-81 174 709 0
81 -174 709 0
-81 -174 -709 0
709 267 -360 0
-709 267 360 0
709 -267 360 0
-709 -267 -360 0
267 -710 0
709 -710 0
-267 -709 710 0
174 -711 0
81 -711 0
-174 -81 711 0
-710 454 0
-711 454 0
710 711 -454 0
82 175 -712 0
-82 175 712 0
82 -175 712 0
-82 -175 -712 0
712 268 -361 0
-712 268 361 0
712 -268 361 0
-712 -268 -361 0
268 -713 0
712 -713 0
-268 -712 713 0
175 -714 0
82 -714 0
-175 -82 714 0
-713 455 0
-714 455 0
713 714 -455 0
83 176 -715 0
-83 176 715 0
83 -176 715 0
-83 -176 -715 0
715 269 -362 0
-715 269 362 0
715 -269 362 0
-715 -269 -362 0
269 -716 0
715 -716 0
-269 -715 716 0
176 -717 0
83 -717 0
-176 -83 717 0
-716 456 0
-717 456 0
716 717 -456 0
84 177 -718 0
-84 177 718 0
84 -177 718 0
-84 -177 -718 0
718 270 -363 0
-718 270 363 0
718 -270 363 0
-718 -270 -363 0
270 -719 0
718 -719 0
-270 -718 719 0
177 -720 0
84 -720 0
-177 -84 720 0
-719 457 0
-720 457 0
719 720 -457 0
85 178 -721 0
-85 178 721 0
85 -178 721 0
-85 -178 -721 0
721 271 -364 0
-721 271 364 0
721 -271 364 0
-721 -271 -364 0
271 -722 0
721 -722 0
-271 -721 722 0
178 -723 0
85 -723 0
-178 -85 723 0
-722 458 0
-723 458 0
722 723 -458 0
86 179 -724 0
-86 179 724 0
86 -179 724 0
-86 -179 -724 0
724 272 -365 0
-724 272 365 0
724 -272 365 0
-724 -272 -365 0
272 -725 0
724 -725 0
-272 -724 725 0
179 -726 0
86 -726 0
-179 -86 726 0
-725 459 0
-726 459 0
725 726 -459 0
87 180 -727 0
-87 180 727 0
87 -180 727 0
-87 -180 -727 0
727 273 -366 0
-727 273 366 0
727 -273 366 0
-727 -273 -366 0
273 -728 0
727 -728 0
-273 -727 728 0
180 -729 0
87 -729 0
-180 -87 729 0
-728 460 0
-729 460 0
728 729 -460 0
88 181 -730 0
-88 181 730 0
88 -181 730 0
-88 -181 -730 0
730 274 -367 0
-730 274 367 0
730 -274 367 0
-730 -274 -367 0
274 -731 0
730 -731 0
-274 -730 731 0
181 -732 0
88 -732 0
-181 -88 732 0
-731 461 0
-732 461 0
731 732 -461 0
89 182 -733 0
-89 182 733 0
89 -182 733 0
-89 -182 -733 0
733 275 -368 0
-733 275 368 0
733 -275 368 0
-733 -275 -368 0
275 -734 0
733 -734 0
-275 -733 734 0
182 -735 0
89 -735 0
-182 -89 735 0
-734 462 0
-735 462 0
734 735 -462 0
90 183 -736 0
-90 183 736 0
90 -183 736 0
-90 -183 -736 0
736 276 -369 0
-736 276 369 0
736 -276 369 0
-736 -276 -369 0
276 -737 0
736 -737 0
-276 -736 737 0
183 -738 0
90 -738 0
-183 -90 738 0
-737 463 0
-738 463 0
737 738 -463 0
91 184 -739 0
-91 184 739 0
91 -184 739 0
-91 -184 -739 0
739 277 -370 0
-739 277 370 0
739 -277 370 0
-739 -277 -370 0
277 -740 0
739 -740 0
-277 -739 740 0
184 -741 0
91 -741 0
-184 -91 741 0
-740 464 0
-741 464 0
740 741 -464 0
92 185 -742 0
-92 185 742 0
92 -185 742 0
-92 -185 -742 0
742 278 -371 0
-742 278 371 0
742 -278 371 0
-742 -278 -371 0
278 -743 0
742 -743 0
-278 -742 743 0
185 -744 0
92 -744 0
-185 -92 744 0
-743 465 0
-744 465 0
743 744 -465 0
93 186 -745 0
-93 186 745 0
93 -186 745 0
-93 -186 -745 0
745 279 -372 0
-745 279 372 0
745 -279 372 0
-745 -279 -372 0
279 -746 0
745 -746 0
-279 -745 746 0
186 -747 0
93 -747 0
-186 -93 747 0
-746 466 0
-747 466 0
746 747 -466 0
